DIMENSION: 30
EDGE_WEIGHT_TYPE: EXPLICIT
EDGE_WEIGHT_FORMAT: FULL_MATRIX
EDGE_WEIGHT_SECTION:
32767 32767 32767 32767 12 32767 96 32767 32767 72 76 44 32767 32767 32767 32767 32767 16 32767 25 32767 45 32767 32767 32767 58 32767 32767 32767 88 
32767 32767 32767 32767 32767 32767 84 32767 32767 32767 32767 32767 32767 32767 14 32767 32767 32767 32767 32767 32767 32767 32767 32767 84 32767 32767 32767 32767 32767 
32767 32767 32767 55 32767 32767 32767 32767 32767 32767 32767 32767 32767 58 32767 32767 32767 32767 32767 32767 32767 32767 32767 99 32767 5 32767 32767 21 32767 
32767 32767 55 32767 32767 32767 32767 7 53 32767 32767 32767 32767 32767 32767 38 76 32767 32767 32767 32767 32767 32767 55 53 32767 32767 18 32767 32767 
12 32767 32767 32767 32767 32767 30 32767 32767 83 32767 32767 32767 32767 19 32767 32767 32767 32767 32767 32767 32767 57 32767 9 55 32767 62 32767 32767 
32767 32767 32767 32767 32767 32767 32767 59 16 32767 32767 74 32767 44 32767 66 32767 32767 32767 55 32767 32767 32767 32767 32767 32767 32767 32767 32767 32767 
96 84 32767 32767 30 32767 32767 45 32767 71 32767 32767 32767 32767 27 4 97 19 32767 32767 34 32767 32767 32767 32767 56 46 32767 32767 32767 
32767 32767 32767 7 32767 59 45 32767 28 75 32767 32767 75 32767 32767 32767 72 42 32767 34 32767 32767 32767 32767 32767 32767 32767 32767 32767 32767 
32767 32767 32767 53 32767 16 32767 28 32767 93 65 32767 32767 32767 32767 32767 32767 32767 32767 32767 32767 32767 32767 32767 32767 32767 32767 32767 32767 52 
72 32767 32767 32767 83 32767 71 75 93 32767 32767 32767 32767 32767 32767 49 32767 32767 37 32767 32767 32767 35 46 32767 32767 32767 66 32767 93 
76 32767 32767 32767 32767 32767 32767 32767 65 32767 32767 32767 32767 32767 32767 32767 32767 32767 32767 85 9 32767 32767 32767 32767 32767 21 32767 37 32767 
44 32767 32767 32767 32767 74 32767 32767 32767 32767 32767 32767 32767 32767 10 32767 32767 25 32767 41 32767 32767 32767 61 78 32767 32767 32767 32767 32767 
32767 32767 32767 32767 32767 32767 32767 75 32767 32767 32767 32767 32767 32767 32767 32767 32767 32767 32767 32767 38 32767 47 32767 32767 60 32767 32767 32767 32767 
32767 32767 58 32767 32767 44 32767 32767 32767 32767 32767 32767 32767 32767 32767 32767 32767 32767 32767 48 3 32767 32767 32767 32767 32767 32767 32767 11 32767 
32767 14 32767 32767 19 32767 27 32767 32767 32767 32767 10 32767 32767 32767 62 32767 32767 32767 32767 4 32767 32767 32767 32767 32767 90 32767 32767 32767 
32767 32767 32767 38 32767 66 4 32767 32767 49 32767 32767 32767 32767 62 32767 97 95 32767 32767 55 32767 32767 78 88 32767 32767 35 95 32767 
32767 32767 32767 76 32767 32767 97 72 32767 32767 32767 32767 32767 32767 32767 97 32767 38 89 32767 32767 32767 32767 39 32767 32767 32767 32767 32767 32767 
16 32767 32767 32767 32767 32767 19 42 32767 32767 32767 25 32767 32767 32767 95 38 32767 32767 10 58 32767 46 32767 32767 32767 32767 61 91 91 
32767 32767 32767 32767 32767 32767 32767 32767 32767 37 32767 32767 32767 32767 32767 32767 89 32767 32767 68 32767 32767 32767 32767 79 32767 32767 8 32767 32767 
25 32767 32767 32767 32767 55 32767 34 32767 32767 85 41 32767 48 32767 32767 32767 10 68 32767 52 32767 32767 45 32767 32767 85 14 29 32767 
32767 32767 32767 32767 32767 32767 34 32767 32767 32767 9 32767 38 3 4 55 32767 58 32767 52 32767 20 14 32767 32767 7 32767 32767 32767 32767 
45 32767 32767 32767 32767 32767 32767 32767 32767 32767 32767 32767 32767 32767 32767 32767 32767 32767 32767 32767 20 32767 32767 32767 32767 32767 32767 60 32767 5 
32767 32767 32767 32767 57 32767 32767 32767 32767 35 32767 32767 47 32767 32767 32767 32767 46 32767 32767 14 32767 32767 32767 32767 15 32767 32767 32767 32767 
32767 32767 99 55 32767 32767 32767 32767 32767 46 32767 61 32767 32767 32767 78 39 32767 32767 45 32767 32767 32767 32767 32767 78 32767 32767 32767 46 
32767 84 32767 53 9 32767 32767 32767 32767 32767 32767 78 32767 32767 32767 88 32767 32767 79 32767 32767 32767 32767 32767 32767 32767 32767 32767 32767 32767 
58 32767 5 32767 55 32767 56 32767 32767 32767 32767 32767 60 32767 32767 32767 32767 32767 32767 32767 7 32767 15 78 32767 32767 17 73 32767 32767 
32767 32767 32767 32767 32767 32767 46 32767 32767 32767 21 32767 32767 32767 90 32767 32767 32767 32767 85 32767 32767 32767 32767 32767 17 32767 19 32767 32767 
32767 32767 32767 18 62 32767 32767 32767 32767 66 32767 32767 32767 32767 32767 35 32767 61 8 14 32767 60 32767 32767 32767 73 19 32767 32767 9 
32767 32767 21 32767 32767 32767 32767 32767 32767 32767 37 32767 32767 11 32767 95 32767 91 32767 29 32767 32767 32767 32767 32767 32767 32767 32767 32767 6 
88 32767 32767 32767 32767 32767 32767 32767 52 93 32767 32767 32767 32767 32767 32767 32767 91 32767 32767 32767 5 32767 46 32767 32767 32767 9 6 32767 
EOF